# nosymmetry b3lyp def2svp int=grid=ultrafine output=wfn

ethene

0 1
  C    0.655780599  -0.116790479   3.530751741
  H    1.047241375  -1.123909307   3.526283475
  H    1.370854383   0.693273495   3.526250153
  C   -0.655775920   0.116792152   3.530760632
  H   -1.370847867  -0.693272366   3.526264544
  H   -1.047239029   1.123911050   3.526302434

ethene.wfn
